&CONTROL
 calculation = 'bands'
 etot_conv_thr =  1.2000000000d-04
 forc_conv_thr = 1.0000000000d-04
 outdir = './out/'
 prefix = 'aiida'
 pseudo_dir = './pseudo/'
 tprnfor = .true.
 tstress = .true.
 verbosity = 'high'
 restart_mode = 'restart'
 max_seconds = 84600
/
&SYSTEM
 degauss = 1.4699723600d-02
 ecutrho = 6.4000000000d+02
 ecutwfc = 8.0000000000d+01
 ibrav = 0
 nat = 12
 nosym = .false.
 ntyp = 2
 occupations = 'smearing'
 smearing = 'cold'
 vdw_corr = 'grimme-d3'
 noncolin = .true.
 lspinorb = .true.
/
&ELECTRONS
 conv_thr = 2.4000000000d-09
 electron_maxstep = 80
 mixing_beta = 1.0000000000d-01
/
ATOMIC_SPECIES
As 74.9216 As.psp8
Ge 72.64 Ge.psp8
ATOMIC_POSITIONS crystal
As 0.6519573021 0.3039146042 0.1887544908
As 0.3480426979 0.6960853958 0.8112455092
As 0.9691272459 0.9382544919 0.1668033066
As 0.0308727541 0.0617455081 0.8331966934
As 0.3395313238 0.6790626478 0.4604874709
As 0.6604686762 0.3209373522 0.5395125291
Ge 0.2545728833 0.5091457666 0.2144368620
Ge 0.7454271167 0.4908542334 0.7855631380
Ge 0.3730461329 0.7460922658 0.0756091075
Ge 0.6269538671 0.2539077342 0.9243908925
Ge 0.9312882127 0.8625764253 0.4107912587
Ge 0.0687117873 0.1374235747 0.5892087413
K_POINTS crystal_b
5
   -0.2656563746 0.7343436254 0.0000000000 30 !C_2
   -0.5000000000 0.5000000000 0.0000000000 20 !Y_2
   0.0000000000 0.0000000000 0.0000000000 20 !Gamma
   -0.5000000000 0.5000000000 0.5000000000 30 !M_2
   -0.2608692614 0.7391307386 0.5000000000 20 !D
CELL_PARAMETERS angstrom
 0.000000000 -3.859418220 -0.000000000
-7.707328030  1.929709110  1.485911701
-0.024498151  0.000000000  -9.590583458
