&BANDS
  prefix = 'aiida'
  outdir = './out'
  filband = 'geas_soc_bands.dat'
/
